Reading model...
...model read.
creating competitive generators file...
...competitive generators recorded.
Loading data...
.. real-time data read.
Compiling instance...
...instance created.
Creating Offer Mitigation (model will solve as dispatch if TRUE)...
NOTE: storage offers will not be mitigated
...storage offer mitigation file created
Converting model to MPEC...
...converted
NOTE: initial MIP solve with only storage competitive to get feasible solution
Solving...

Welcome to IBM(R) ILOG(R) CPLEX(R) Interactive Optimizer 12.9.0.0
  with Simplex, Mixed Integer & Barrier Optimizers
5725-A06 5725-A29 5724-Y48 5724-Y49 5724-Y54 5724-Y55 5655-Y21
Copyright IBM Corp. 1988, 2019.  All Rights Reserved.

Type 'help' for a list of available commands.
Type 'help' followed by a command name for more
information on commands.

CPLEX> Logfile 'cplex.log' closed.
Logfile 'C:\Users\llavin\Desktop\test826\logs\tmpblb55d7c.cplex.log' open.
CPLEX> New value for parallel optimization mode: -1
CPLEX> New value for emphasis for MIP optimization: 1
CPLEX> New value for mixed integer optimality gap tolerance: 0.01
CPLEX> New value for integrality tolerance: 1e-12
CPLEX> New value for deterministic time limit in ticks: 65000
CPLEX> Problem 'C:\Users\llavin\Desktop\test826\logs\tmp85qkiw25.pyomo.lp' read.
Read time = 0.47 sec. (28.91 ticks)
CPLEX> Problem name         : C:\Users\llavin\Desktop\test826\logs\tmp85qkiw25.pyomo.lp
Objective sense      : Maximize
Variables            :  107803  [Nneg: 1,  Box: 44062,  Free: 8928,
                                 Binary: 54812]
Objective nonzeros   :   17280
Linear constraints   :  246963  [Less: 82886,  Greater: 118460,  Equal: 45617]
  Nonzeros           :  620741
  RHS nonzeros       :  134923

Variables            : Min LB: -5000.000        Max UB: 1000000.       
Objective nonzeros   : Min   : 0.1944444        Max   : 180.0000       
Linear constraints   :
  Nonzeros           : Min   : 0.1944444        Max   : 1000000.       
  RHS nonzeros       : Min   : 0.1944444        Max   : 1000000.       
CPLEX> CPXPARAM_Parallel                                -1
CPXPARAM_Emphasis_MIP                            1
CPXPARAM_DetTimeLimit                            65000
CPXPARAM_MIP_Tolerances_MIPGap                   0.01
CPXPARAM_MIP_Tolerances_Integrality              9.9999999999999998e-13
Tried aggregator 3 times.
MIP Presolve eliminated 181587 rows and 41461 columns.
MIP Presolve added 6096 rows and 0 columns.
MIP Presolve modified 49560 coefficients.
Aggregator did 25919 substitutions.
Reduced MIP has 45553 rows, 38791 columns, and 145293 nonzeros.
Reduced MIP has 15254 binaries, 0 generals, 0 SOSs, and 0 indicators.
Presolve time = 0.59 sec. (384.16 ticks)
Probing fixed 802 vars, tightened 9502 bounds.
Probing time = 0.38 sec. (14.65 ticks)
Tried aggregator 2 times.
MIP Presolve eliminated 1796 rows and 1604 columns.
MIP Presolve modified 5424 coefficients.
Aggregator did 48 substitutions.
Reduced MIP has 43709 rows, 37139 columns, and 139812 nonzeros.
Reduced MIP has 14452 binaries, 0 generals, 0 SOSs, and 0 indicators.
Presolve time = 0.22 sec. (215.48 ticks)
Probing fixed 0 vars, tightened 538 bounds.
Probing time = 0.52 sec. (15.70 ticks)
Clique table members: 87249.
MIP emphasis: integer feasibility.
MIP search method: dynamic search.
Parallel mode: opportunistic, using up to 32 threads.
Root relaxation solution time = 0.86 sec. (1720.18 ticks)

        Nodes                                         Cuts/
   Node  Left     Objective  IInf  Best Integer    Best Bound    ItCnt     Gap

      0     0      361.3071   281                    361.3071     9302         
*     0     0      integral     0      361.3071   Flowcuts: 1     9312    0.00%
      0     0        cutoff            361.3071      361.3071     9312    0.00%
Elapsed time = 3.70 sec. (3182.31 ticks, tree = 0.01 MB, solutions = 1)

Flow cuts applied:  1

Root node processing (before b&c):
  Real time             =    3.74 sec. (3186.16 ticks)
Parallel b&c, 32 threads:
  Real time             =    0.00 sec. (0.00 ticks)
  Sync time (average)   =    0.00 sec.
  Wait time (average)   =    0.00 sec.
                          ------------
Total (root+branch&cut) =    3.74 sec. (3186.16 ticks)

Solution pool: 1 solution saved.

MIP - Integer optimal solution:  Objective =  3.6130713962e+02
Solution time =    3.80 sec.  Iterations = 9312  Nodes = 0
Deterministic time = 3186.47 ticks  (839.21 ticks/sec)

CPLEX> Incumbent solution written to file 'C:\Users\llavin\Desktop\test826\logs\tmp9yai_2hr.cplex.sol'.
CPLEX> NOTE: no warmstart specified for MIP iteration, default behavior is true
NOTE: resolving with all competitive generators using storage-only solution to warmstart
Solving...

Welcome to IBM(R) ILOG(R) CPLEX(R) Interactive Optimizer 12.9.0.0
  with Simplex, Mixed Integer & Barrier Optimizers
5725-A06 5725-A29 5724-Y48 5724-Y49 5724-Y54 5724-Y55 5655-Y21
Copyright IBM Corp. 1988, 2019.  All Rights Reserved.

Type 'help' for a list of available commands.
Type 'help' followed by a command name for more
information on commands.

CPLEX> Logfile 'cplex.log' closed.
Logfile 'C:\Users\llavin\Desktop\test826\logs\tmpbdkaw6wz.cplex.log' open.
CPLEX> New value for parallel optimization mode: -1
CPLEX> New value for emphasis for MIP optimization: 1
CPLEX> New value for mixed integer optimality gap tolerance: 0.01
CPLEX> New value for integrality tolerance: 1e-12
CPLEX> New value for deterministic time limit in ticks: 65000
CPLEX> Problem 'C:\Users\llavin\Desktop\test826\logs\tmpxiudlpzk.pyomo.lp' read.
Read time = 0.48 sec. (28.95 ticks)
CPLEX> MIP start file 'C:\Users\llavin\Desktop\test826\logs\tmp7j0oitg9.cplex.mst' read.
CPLEX> Problem name         : C:\Users\llavin\Desktop\test826\logs\tmpxiudlpzk.pyomo.lp
Objective sense      : Maximize
Variables            :  109243  [Nneg: 1,  Box: 45502,  Free: 8928,
                                 Binary: 54812]
Objective nonzeros   :   18672
Linear constraints   :  246963  [Less: 82886,  Greater: 118460,  Equal: 45617]
  Nonzeros           :  620741
  RHS nonzeros       :  134923

Variables            : Min LB: -5000.000        Max UB: 1000000.       
Objective nonzeros   : Min   : 0.1944444        Max   : 180.0000       
Linear constraints   :
  Nonzeros           : Min   : 0.1944444        Max   : 1000000.       
  RHS nonzeros       : Min   : 0.1944444        Max   : 1000000.       
CPLEX> CPXPARAM_Parallel                                -1
CPXPARAM_Emphasis_MIP                            1
CPXPARAM_DetTimeLimit                            65000
CPXPARAM_MIP_Tolerances_MIPGap                   0.01
CPXPARAM_MIP_Tolerances_Integrality              9.9999999999999998e-13
Warning:  No solution found from 1 MIP starts.
Retaining values of one MIP start for possible repair.
Tried aggregator 3 times.
MIP Presolve eliminated 181587 rows and 42901 columns.
MIP Presolve added 6096 rows and 0 columns.
MIP Presolve modified 49560 coefficients.
Aggregator did 25919 substitutions.
Reduced MIP has 45553 rows, 38791 columns, and 145293 nonzeros.
Reduced MIP has 15254 binaries, 0 generals, 0 SOSs, and 0 indicators.
Presolve time = 0.56 sec. (384.90 ticks)
Probing fixed 802 vars, tightened 9502 bounds.
Probing time = 0.38 sec. (14.65 ticks)
Tried aggregator 2 times.
MIP Presolve eliminated 1796 rows and 1604 columns.
MIP Presolve modified 5424 coefficients.
Aggregator did 48 substitutions.
Reduced MIP has 43709 rows, 37139 columns, and 139812 nonzeros.
Reduced MIP has 14452 binaries, 0 generals, 0 SOSs, and 0 indicators.
Presolve time = 0.22 sec. (215.49 ticks)
Probing fixed 0 vars, tightened 538 bounds.
Probing time = 0.52 sec. (15.70 ticks)
Clique table members: 87236.
MIP emphasis: integer feasibility.
MIP search method: dynamic search.
Parallel mode: opportunistic, using up to 32 threads.
Root relaxation solution time = 0.95 sec. (1841.88 ticks)

        Nodes                                         Cuts/
   Node  Left     Objective  IInf  Best Integer    Best Bound    ItCnt     Gap

      0     0    27924.8203   616                  27924.8203     9986         
      0     0    26351.7583   446                   Cuts: 312    10726         
      0     0    26116.2824   414                   Cuts: 139    10852         
      0     0    26111.4426   393                    Cuts: 14    10884         
Repair heuristic found nothing.
      0    36    25726.9399   396                    Cuts: 10    11419         
Elapsed time = 9.05 sec. (4506.66 ticks, tree = 0.02 MB, solutions = 0)
    269    91    24466.9557   337                  25760.7629    12313         
    618   218    24588.8757   331                  25760.7629    13592         
    985   729    23630.1112   360                  25760.7629    18630         
   1277  1135    23375.6849   335                  25760.7629    22130         
   1629  1339    21456.1670   217                  25760.7629    23704         
   1957  1801    21490.2124   301                  25760.7629    29007         
   2320  1973    21936.5970   216                  25760.7629    31999         
   2700  2065    20815.8253   198                  25760.7629    33211         
   3060  2613    20243.7630   213                  25760.7629    38252         
   4380  3780     9609.5063   172                  25760.7629    51425         
Elapsed time = 29.36 sec. (7612.50 ticks, tree = 44.05 MB, solutions = 0)
   5616  4675    12526.2768   194                  25720.1292    67070         
   6990  5480    12259.2863   183                  25720.1292    77195         
   8437  6642     5295.5218    83                  25720.1292    91407         
   9864  7859    infeasible                        25720.1292   109251         
  11362  8253    12453.8282   117                  25720.1292   115942         
  12779  9698    14377.8060   156                  25720.1292   142607         
  14301 11010    13609.8064   201                  25720.1292   163239         
  15772 12259    12630.7633   193                  25720.1292   185102         
  17085 13175     4479.7691   212                  25720.1292   207917         
  18448 14378    17685.7567   220                  25720.1292   238252         
Elapsed time = 93.67 sec. (17154.67 ticks, tree = 196.42 MB, solutions = 0)
  19898 15432    17717.9787   230                  25720.1292   259145         
  21194 16556    17761.1187   246                  25720.1292   284025         
  22534 17543    14229.2619   180                  25720.1292   307278         
  23901 18224    15380.7353   219                  25720.1292   321610         
  25422 20025     5193.9477   151                  25720.1292   364064         
  26859 21032     1658.4507   174                  25720.1292   388181         
  28218 21743     8202.0444   165                  25720.1292   404613         
  29611 22536    14447.9602   213                  25720.1292   427023         
  31044 24112     -516.4458   111                  25720.1292   462241         
  32556 26198   -14634.3304   160                  25720.1292   510092         
Elapsed time = 156.70 sec. (26698.07 ticks, tree = 364.94 MB, solutions = 0)
  34021 28214     9503.1315   161                  25720.1292   564911         
  35377 27406    -6526.4021   206                  25720.1292   544873         
  36652 29575     7624.4135   134                  25720.1292   607995         
  37939 30716     7719.2521   110                  25720.1292   643455         
  39239 30793     7049.0782   138                  25720.1292   646380         
  40692 31489    15332.8911   116                  25720.1292   670347         
  42107 32179     9149.5926   146                  25720.1292   695528         
  43423 34405    infeasible                        25720.1292   762150         
  44674 35035    10328.8425   146                  25720.1292   781836         
  45969 36787    13094.5231   143                  25720.1292   838074         
Elapsed time = 216.33 sec. (36238.98 ticks, tree = 516.91 MB, solutions = 0)
  47335 36121    infeasible                        25720.1292   819007         
  48630 37032    infeasible                        25720.1292   847596         
  49985 38536    infeasible                        25720.1292   889446         
  51392 38775    11274.9437   133                  25720.1292   897165         
  52827 41865    15526.8359   180                  25720.1292   993091         
  54251 42678    13089.5032   162                  25720.1292  1017494         
  55626 42088    10517.4087   113                  25720.1292   998905         
  56861 43520    13597.1599   199                  25720.1292  1040303         
  58119 44583     2659.1855   113                  25720.1292  1071932         
  59308 46098    12024.0448    99                  25720.1292  1111672         
Elapsed time = 277.63 sec. (45783.38 ticks, tree = 836.35 MB, solutions = 0)
  60575 47596     9105.0229   212                  25720.1292  1142506         
  61811 47278    14795.1353   104                  25720.1292  1136805         
  63130 50135    -4333.8359    69                  25720.1292  1202629         
  64461 50437     6685.6492   149                  25720.1292  1212578         
  65948 50868    13415.6548    96                  25720.1292  1227531         
  67432 53033     9900.0124    97                  25720.1292  1290980         
  68886 54410    11472.1608   112                  25720.1292  1339264         
  70239 53786    18164.2845   252                  25720.1292  1313294         
  71489 57041    16762.7867   215                  25720.1292  1441391         
  72780 54685     7585.4894   117                  25672.4856  1346683         
Elapsed time = 335.70 sec. (55325.63 ticks, tree = 1596.35 MB, solutions = 0)
  74009 57316     9666.7914   105                  25672.4856  1448703         
  75269 56622    12288.7967   100                  25672.4856  1422781         
  76517 58313     -712.7279   129                  25672.4856  1496587         
  77762 59488     -712.7279   128                  25478.2233  1556742         
  78956 59458    12855.9764   131                  25478.2233  1554048         
  80161 61814    11897.5482   228                  25478.2233  1699296         
  81448 60987    -3616.0994   133                  25420.9437  1639683         
  82707 61838    11811.6624   106                  25420.9437  1699200         
  83759 62790    18015.3649   253                  25420.9437  1760208         
  84431 62842    infeasible                        25420.9437  1763376         
Elapsed time = 380.19 sec. (64873.68 ticks, tree = 1703.46 MB, solutions = 0)

Cover cuts applied:  5
Implied bound cuts applied:  2
Flow cuts applied:  370
Mixed integer rounding cuts applied:  16

Root node processing (before b&c):
  Real time             =    5.72 sec. (4442.03 ticks)
Parallel b&c, 32 threads:
  Real time             =  375.81 sec. (60598.38 ticks)
  Sync time (average)   =    2.03 sec.
  Wait time (average)   =    0.00 sec.
                          ------------
Total (root+branch&cut) =  381.53 sec. (65040.41 ticks)


MIP - Deterministic time limit exceeded, no integer solution.
Current MIP best bound =  2.5385412321e+04 (gap is infinite)
Solution time =  381.55 sec.  Iterations = 1910614  Nodes = 84493 (65600)
Deterministic time = 65040.72 ticks  (170.47 ticks/sec)

CPLEX> CPLEX Error  1217: No solution exists.
No file written.
CPLEX> gap is infinite, so writing 0
Exporting results... 
